* #variable= 60 #constraint= 82 
-1 x41 -1 x1 -1 x21 >= -2 ;
-1 x41 +1 x1 +1 x21 >= 0 ;
+1 x41 -1 x1 +1 x21 >= 0 ;
+1 x41 +1 x1 -1 x21 >= 0 ;
-1 x42 -1 x2 -1 x22 >= -2 ;
-1 x42 +1 x2 +1 x22 >= 0 ;
+1 x42 -1 x2 +1 x22 >= 0 ;
+1 x42 +1 x2 -1 x22 >= 0 ;
-1 x43 -1 x3 -1 x23 >= -2 ;
-1 x43 +1 x3 +1 x23 >= 0 ;
+1 x43 -1 x3 +1 x23 >= 0 ;
+1 x43 +1 x3 -1 x23 >= 0 ;
-1 x44 -1 x4 -1 x24 >= -2 ;
-1 x44 +1 x4 +1 x24 >= 0 ;
+1 x44 -1 x4 +1 x24 >= 0 ;
+1 x44 +1 x4 -1 x24 >= 0 ;
-1 x45 -1 x5 -1 x25 >= -2 ;
-1 x45 +1 x5 +1 x25 >= 0 ;
+1 x45 -1 x5 +1 x25 >= 0 ;
+1 x45 +1 x5 -1 x25 >= 0 ;
-1 x46 -1 x6 -1 x26 >= -2 ;
-1 x46 +1 x6 +1 x26 >= 0 ;
+1 x46 -1 x6 +1 x26 >= 0 ;
+1 x46 +1 x6 -1 x26 >= 0 ;
-1 x47 -1 x7 -1 x27 >= -2 ;
-1 x47 +1 x7 +1 x27 >= 0 ;
+1 x47 -1 x7 +1 x27 >= 0 ;
+1 x47 +1 x7 -1 x27 >= 0 ;
-1 x48 -1 x8 -1 x28 >= -2 ;
-1 x48 +1 x8 +1 x28 >= 0 ;
+1 x48 -1 x8 +1 x28 >= 0 ;
+1 x48 +1 x8 -1 x28 >= 0 ;
-1 x49 -1 x9 -1 x29 >= -2 ;
-1 x49 +1 x9 +1 x29 >= 0 ;
+1 x49 -1 x9 +1 x29 >= 0 ;
+1 x49 +1 x9 -1 x29 >= 0 ;
-1 x50 -1 x10 -1 x30 >= -2 ;
-1 x50 +1 x10 +1 x30 >= 0 ;
+1 x50 -1 x10 +1 x30 >= 0 ;
+1 x50 +1 x10 -1 x30 >= 0 ;
-1 x51 -1 x11 -1 x31 >= -2 ;
-1 x51 +1 x11 +1 x31 >= 0 ;
+1 x51 -1 x11 +1 x31 >= 0 ;
+1 x51 +1 x11 -1 x31 >= 0 ;
-1 x52 -1 x12 -1 x32 >= -2 ;
-1 x52 +1 x12 +1 x32 >= 0 ;
+1 x52 -1 x12 +1 x32 >= 0 ;
+1 x52 +1 x12 -1 x32 >= 0 ;
-1 x53 -1 x13 -1 x33 >= -2 ;
-1 x53 +1 x13 +1 x33 >= 0 ;
+1 x53 -1 x13 +1 x33 >= 0 ;
+1 x53 +1 x13 -1 x33 >= 0 ;
-1 x54 -1 x14 -1 x34 >= -2 ;
-1 x54 +1 x14 +1 x34 >= 0 ;
+1 x54 -1 x14 +1 x34 >= 0 ;
+1 x54 +1 x14 -1 x34 >= 0 ;
-1 x55 -1 x15 -1 x35 >= -2 ;
-1 x55 +1 x15 +1 x35 >= 0 ;
+1 x55 -1 x15 +1 x35 >= 0 ;
+1 x55 +1 x15 -1 x35 >= 0 ;
-1 x56 -1 x16 -1 x36 >= -2 ;
-1 x56 +1 x16 +1 x36 >= 0 ;
+1 x56 -1 x16 +1 x36 >= 0 ;
+1 x56 +1 x16 -1 x36 >= 0 ;
-1 x57 -1 x17 -1 x37 >= -2 ;
-1 x57 +1 x17 +1 x37 >= 0 ;
+1 x57 -1 x17 +1 x37 >= 0 ;
+1 x57 +1 x17 -1 x37 >= 0 ;
-1 x58 -1 x18 -1 x38 >= -2 ;
-1 x58 +1 x18 +1 x38 >= 0 ;
+1 x58 -1 x18 +1 x38 >= 0 ;
+1 x58 +1 x18 -1 x38 >= 0 ;
-1 x59 -1 x19 -1 x39 >= -2 ;
-1 x59 +1 x19 +1 x39 >= 0 ;
+1 x59 -1 x19 +1 x39 >= 0 ;
+1 x59 +1 x19 -1 x39 >= 0 ;
-1 x60 -1 x20 -1 x40 >= -2 ;
-1 x60 +1 x20 +1 x40 >= 0 ;
+1 x60 -1 x20 +1 x40 >= 0 ;
+1 x60 +1 x20 -1 x40 >= 0 ;
+1 x1 -1 x21 +2 x2 -2 x22 +4 x3 -4 x23 +8 x4 -8 x24 +16 x5 -16 x25 +32 x6 -32 x26 +64 x7 -64 x27 +128 x8 -128 x28 +256 x9 -256 x29 +512 x10 -512 x30 +1024 x11 -1024 x31 +2048 x12 -2048 x32 +4096 x13 -4096 x33 +8192 x14 -8192 x34 +16384 x15 -16384 x35 +32768 x16 -32768 x36 +65536 x17 -65536 x37 +131072 x18 -131072 x38 +262144 x19 -262144 x39 +524288 x20 -524288 x40 = 0 ;
+1 x41 +1 x42 +1 x43 +1 x44 +1 x45 +1 x46 +1 x47 +1 x48 +1 x49 +1 x50 +1 x51 +1 x52 +1 x53 +1 x54 +1 x55 +1 x56 +1 x57 +1 x58 +1 x59 +1 x60 >= 1 ;
